NAME : Custom-CVRP
COMMENT : Custom generated data set
TYPE : CVRP
DIMENSION : 31
EDGE_WEIGHT_TYPE : EUC_2D
CAPACITY : 10
NODE_COORD_SECTION
 1 5 26
 2 94 61
 3 42 46
 4 46 89
 5 49 12
 6 38 51
 7 96 65
 8 26 90
 9 95 93
 10 72 5
 11 45 95
 12 85 81
 13 78 83
 14 3 25
 15 41 97
 16 59 90
 17 17 98
 18 81 76
 19 15 42
 20 7 51
 21 66 90
 22 89 90
 23 10 36
 24 25 54
 25 50 31
 26 31 52
 27 23 38
 28 4 35
 29 26 94
 30 76 62
 31 53 36
DEMAND_SECTION
 1 0
 2 3
 3 1
 4 3
 5 2
 6 3
 7 1
 8 1
 9 2
 10 2
 11 2
 12 1
 13 1
 14 2
 15 1
 16 1
 17 3
 18 3
 19 3
 20 3
 21 1
 22 3
 23 3
 24 3
 25 1
 26 2
 27 1
 28 2
 29 3
 30 1
 31 3
DEPOT_SECTION
 1
 -1
EOF
